n_trains = 20;
n_tracks = 5;
tracks = [{1, 2},{3, 4, 5},{6, 7, 8, 9, 10},{11, 12, 13, 14, 15},{16, 17, 18, 19, 20}];
arrival_order = [3, 1, 4, 8, 11, 5, 7, 19, 18, 10, 14, 16, 12, 20, 2, 6, 9, 17, 15, 13];
departure_order = [20, 19, 18, 17, 16, 15, 14, 13, 12, 11, 10, 9, 8, 7, 6, 5, 4, 3, 2, 1];
